# Objective value = 2.9786601399560720e+02
x[0] 1
x[1] 1
x[2] 1
x[3] 0
x[4] 0
x[5] 1
x[6] 1
x[7] 0
x[8] 0
x[9] 0
x[10] 0
x[11] 0
x[12] 0
x[13] 1
x[14] 1
x[15] 0
x[16] 0
x[17] 0
x[18] 0
x[19] 0
x[20] 0
x[21] 1
x[22] 0
x[23] 0
x[24] 1
x[25] 0
x[26] 0
x[27] 1
x[28] 0
x[29] 0
x[30] 1
x[31] 0
x[32] 0
x[33] 0
x[34] 1
x[35] 0
x[36] 1
x[37] 0
x[38] 0
x[39] 0
x[40] 1
x[41] 1
x[42] 1
x[43] 1
x[44] 0
x[45] 1
x[46] 0
x[47] 0
x[48] 1
x[49] 1
x[50] 0
x[51] 1
x[52] 0
x[53] 1
x[54] 1
x[55] 1
x[56] 0
x[57] 1
x[58] 1
x[59] 1
x[60] 0
x[61] 0
x[62] 0
x[63] 0
x[64] 0
x[65] 0
x[66] 0
x[67] 1
x[68] 1
x[69] 1
x[70] 0
x[71] 1
x[72] 0
x[73] 0
x[74] 0
x[75] 0
x[76] 1
x[77] 0
x[78] 1
x[79] 0
x[80] 1
x[81] 0
x[82] 0
x[83] 0
x[84] 1
x[85] 0
x[86] 1
x[87] 1
x[88] 0
x[89] 0
x[90] 0
x[91] 1
x[92] 0
x[93] 1
x[94] 0
x[95] 0
x[96] 0
x[97] 1
x[98] 0
x[99] 0
x[100] 1
x[101] 1
x[102] 1
x[103] 1
x[104] 0
x[105] 1
x[106] 1
x[107] 1
x[108] 0
x[109] 1
x[110] 0
x[111] 0
x[112] 1
x[113] 1
x[114] 0
x[115] 0
x[116] 0
x[117] 0
x[118] 0
x[119] 0
x[120] 1
x[121] 0
x[122] 1
x[123] 0
x[124] 0
x[125] 1
x[126] 0
x[127] 1
x[128] 1
x[129] 0
x[130] 1
x[131] 0
x[132] 1
x[133] 1
x[134] 0
x[135] 1
x[136] 1
x[137] 0
x[138] 0
x[139] 0
x[140] 1
x[141] 0
x[142] 0
x[143] 0
x[144] 1
x[145] 1
x[146] 1
x[147] 1
x[148] 1
x[149] 0
x[150] 0
x[151] 0
x[152] 0
x[153] 1
x[154] 1
x[155] 0
x[156] 0
x[157] 0
x[158] 1
x[159] 1
x[160] 1
x[161] 1
x[162] 1
x[163] 1
x[164] 1
x[165] 1
x[166] 0
x[167] 0
x[168] 0
x[169] 0
x[170] 0
x[171] 0
x[172] 0
x[173] 0
x[174] 1
x[175] 1
x[176] 0
x[177] 1
x[178] 1
x[179] 1
x[180] 0
x[181] 1
x[182] 0
x[183] 1
x[184] 1
x[185] 0
x[186] 1
x[187] 0
x[188] 1
x[189] 0
x[190] 0
x[191] 1
x[192] 1
x[193] 1
x[194] 1
x[195] 1
x[196] 0
x[197] 0
x[198] 0
x[199] 1
x[200] 0
x[201] 0
x[202] 0
x[203] 0
x[204] 0
x[205] 1
x[206] 1
x[207] 0
x[208] 0
x[209] 1
x[210] 1
x[211] 0
x[212] 1
x[213] 1
x[214] 1
x[215] 0
x[216] 1
x[217] 1
x[218] 1
x[219] 0
x[220] 0
x[221] 0
x[222] 1
x[223] 0
x[224] 0
x[225] 0
x[226] 1
x[227] 0
x[228] 1
x[229] 0
x[230] 0
x[231] 1
x[232] 0
x[233] 0
x[234] 1
x[235] 1
x[236] 0
x[237] 1
x[238] 1
x[239] 1
x[240] 1
x[241] 0
x[242] 1
x[243] 1
x[244] 0
x[245] 0
x[246] 0
x[247] 0
x[248] 0
x[249] 1
x[250] 0
x[251] 0
x[252] 1
x[253] 0
x[254] 0
x[255] 1
x[256] 1
x[257] 1
x[258] 0
x[259] 0
x[260] 0
x[261] 1
x[262] 0
x[263] 0
x[264] 0
x[265] 1
x[266] 1
x[267] 1
x[268] 1
x[269] 0
x[270] 1
x[271] 0
x[272] 1
x[273] 1
x[274] 1
x[275] 1
x[276] 0
x[277] 0
x[278] 0
x[279] 0
x[280] 1
x[281] 0
x[282] 0
x[283] 0
x[284] 1
x[285] 1
x[286] 0
x[287] 1
x[288] 0
x[289] 0
x[290] 0
x[291] 0
x[292] 1
x[293] 1
x[294] 1
x[295] 1
x[296] 0
x[297] 1
x[298] 1
x[299] 0
x[300] 1
x[301] 0
x[302] 0
x[303] 0
x[304] 0
x[305] 1
x[306] 1
x[307] 1
x[308] 1
x[309] 0
x[310] 1
x[311] 1
x[312] 1
x[313] 1
x[314] 0
x[315] 0
x[316] 0
x[317] 1
x[318] 1
x[319] 1
x[320] 0
x[321] 0
x[322] 1
x[323] 1
x[324] 1
x[325] 1
x[326] 1
x[327] 0
x[328] 0
x[329] 0
x[330] 0
x[331] 0
x[332] 1
x[333] 0
x[334] 1
x[335] 1
x[336] 1
x[337] 1
x[338] 0
x[339] 1
x[340] 1
x[341] 0
x[342] 1
x[343] 1
x[344] 1
x[345] 1
x[346] 0
x[347] 0
x[348] 1
x[349] 1
x[350] 1
x[351] 0
x[352] 0
x[353] 1
x[354] 1
x[355] 1
x[356] 1
x[357] 1
x[358] 0
x[359] 0
x[360] 0
x[361] 0
x[362] 0
x[363] 0
x[364] 0
x[365] 1
x[366] 0
x[367] 1
x[368] 1
x[369] 0
x[370] 1
x[371] 1
x[372] 0
x[373] 0
x[374] 1
x[375] 1
x[376] 0
x[377] 1
x[378] 0
x[379] 0
x[380] 0
x[381] 0
x[382] 0
x[383] 0
x[384] 0
x[385] 1
x[386] 0
x[387] 0
x[388] 0
x[389] 1
x[390] 0
x[391] 1
x[392] 1
x[393] 1
x[394] 0
x[395] 0
x[396] 0
x[397] 1
x[398] 0
x[399] 1
x[400] 1
x[401] 1
x[402] 1
x[403] 1
x[404] 0
x[405] 0
x[406] 0
x[407] 0
x[408] 1
x[409] 1
x[410] 0
x[411] 1
x[412] 0
x[413] 0
x[414] 0
x[415] 1
x[416] 0
x[417] 1
x[418] 0
x[419] 0
x[420] 1
x[421] 0
x[422] 1
x[423] 1
x[424] 0
x[425] 0
x[426] 1
x[427] 1
x[428] 0
x[429] 1
x[430] 0
x[431] 1
x[432] 0
x[433] 1
x[434] 1
x[435] 1
x[436] 1
x[437] 1
x[438] 1
x[439] 1
x[440] 0
x[441] 0
x[442] 0
x[443] 1
x[444] 1
x[445] 1
x[446] 0
x[447] 1
x[448] 0
x[449] 0
x[450] 1
x[451] 0
x[452] 1
x[453] 1
x[454] 0
x[455] 0
x[456] 0
x[457] 0
x[458] 0
x[459] 0
x[460] 0
x[461] 0
x[462] 1
x[463] 0
x[464] 0
x[465] 1
x[466] 1
x[467] 1
x[468] 0
x[469] 1
x[470] 1
x[471] 1
x[472] 1
x[473] 1
x[474] 0
x[475] 0
x[476] 0
x[477] 0
x[478] 0
x[479] 0
x[480] 1
x[481] 0
x[482] 0
x[483] 0
x[484] 1
x[485] 0
x[486] 0
x[487] 0
x[488] 0
x[489] 0
x[490] 0
x[491] 0
x[492] 1
x[493] 0
x[494] 1
x[495] 1
x[496] 0
x[497] 0
x[498] 1
x[499] 0
x[500] 1
x[501] 0
x[502] 1
x[503] 0
x[504] 1
x[505] 0
x[506] 1
x[507] 1
x[508] 1
x[509] 0
x[510] 0
x[511] 0
x[512] 0
x[513] 0
x[514] 1
x[515] 1
x[516] 1
x[517] 1
x[518] 1
x[519] 0
x[520] 1
x[521] 1
x[522] 1
x[523] 0
x[524] 0
x[525] 1
x[526] 1
x[527] 1
x[528] 1
x[529] 0
x[530] 1
x[531] 0
x[532] 1
x[533] 0
x[534] 0
x[535] 0
x[536] 1
x[537] 0
x[538] 0
x[539] 1
x[540] 1
x[541] 0
x[542] 1
x[543] 0
x[544] 0
x[545] 1
x[546] 1
x[547] 0
x[548] 1
x[549] 0
x[550] 0
x[551] 1
x[552] 1
x[553] 0
x[554] 1
x[555] 0
x[556] 1
x[557] 0
x[558] 0
x[559] 0
x[560] 0
x[561] 0
x[562] 1
x[563] 0
x[564] 0
x[565] 1
x[566] 0
x[567] 0
x[568] 0
x[569] 1
x[570] 1
x[571] 0
x[572] 1
x[573] 1
x[574] 1
x[575] 1
x[576] 1
x[577] 0
x[578] 1
x[579] 0
x[580] 1
x[581] 0
x[582] 0
x[583] 0
x[584] 1
x[585] 0
x[586] 0
x[587] 1
x[588] 0
x[589] 1
x[590] 1
x[591] 0
x[592] 0
x[593] 0
x[594] 0
x[595] 1
x[596] 1
x[597] 0
x[598] 1
x[599] 0
x[600] 0
x[601] 0
x[602] 0
x[603] 0
x[604] 1
x[605] 1
x[606] 1
x[607] 0
x[608] 0
x[609] 0
x[610] 0
x[611] 1
x[612] 0
x[613] 1
x[614] 1
x[615] 1
x[616] 1
x[617] 0
x[618] 1
x[619] 0
x[620] 1
x[621] 0
x[622] 0
x[623] 1
x[624] 0
x[625] 0
x[626] 1
x[627] 1
x[628] 0
x[629] 0
x[630] 1
x[631] 0
x[632] 0
x[633] 0
x[634] 0
x[635] 1
x[636] 0
x[637] 1
x[638] 1
x[639] 1
x[640] 0
x[641] 1
x[642] 0
x[643] 1
x[644] 0
x[645] 1
x[646] 0
x[647] 1
x[648] 0
x[649] 0
x[650] 1
x[651] 1
x[652] 1
x[653] 0
x[654] 0
x[655] 1
x[656] 0
x[657] 1
x[658] 1
x[659] 0
x[660] 1
x[661] 1
x[662] 0
x[663] 0
x[664] 0
x[665] 1
x[666] 0
x[667] 1
x[668] 0
x[669] 0
x[670] 0
x[671] 0
x[672] 0
x[673] 0
x[674] 1
x[675] 0
x[676] 0
x[677] 0
x[678] 0
x[679] 0
x[680] 0
x[681] 0
x[682] 0
x[683] 1
x[684] 1
x[685] 0
x[686] 1
x[687] 0
x[688] 0
x[689] 1
x[690] 0
x[691] 1
x[692] 0
x[693] 1
x[694] 0
x[695] 1
x[696] 1
x[697] 0
x[698] 0
x[699] 0
x[700] 1
x[701] 1
x[702] 0
x[703] 0
x[704] 1
x[705] 1
x[706] 0
x[707] 1
x[708] 1
x[709] 1
x[710] 1
x[711] 0
x[712] 1
x[713] 0
x[714] 1
x[715] 1
x[716] 0
x[717] 1
x[718] 1
x[719] 1
x[720] 0
x[721] 1
x[722] 0
x[723] 0
x[724] 0
x[725] 1
x[726] 0
x[727] 1
x[728] 1
x[729] 1
x[730] 1
x[731] 1
x[732] 0
x[733] 0
x[734] 0
x[735] 0
x[736] 1
x[737] 0
x[738] 1
x[739] 0
x[740] 0
x[741] 1
x[742] 0
x[743] 1
x[744] 0
x[745] 0
x[746] 0
x[747] 0
x[748] 0
x[749] 1
x[750] 1
x[751] 1
x[752] 0
x[753] 0
x[754] 0
x[755] 0
x[756] 0
x[757] 1
x[758] 1
x[759] 1
x[760] 0
x[761] 0
x[762] 0
x[763] 1
x[764] 0
x[765] 1
x[766] 0
x[767] 0
x[768] 0
x[769] 1
x[770] 1
x[771] 0
x[772] 0
x[773] 0
x[774] 0
x[775] 1
x[776] 0
x[777] 1
x[778] 0
x[779] 1
x[780] 0
x[781] 1
x[782] 0
x[783] 0
x[784] 1
x[785] 1
x[786] 1
x[787] 0
x[788] 0
x[789] 0
x[790] 1
x[791] 0
x[792] 1
x[793] 0
x[794] 1
x[795] 1
x[796] 0
x[797] 1
x[798] 1
x[799] 1
x[800] 0
x[801] 1
x[802] 1
x[803] 1
x[804] 0
x[805] 1
x[806] 1
x[807] 0
x[808] 0
x[809] 1
x[810] 1
x[811] 0
x[812] 0
x[813] 1
x[814] 0
x[815] 0
x[816] 0
x[817] 1
x[818] 0
x[819] 0
x[820] 0
x[821] 0
x[822] 0
x[823] 0
x[824] 1
x[825] 0
x[826] 1
x[827] 0
x[828] 1
x[829] 1
x[830] 1
x[831] 1
x[832] 1
x[833] 0
x[834] 0
x[835] 1
x[836] 0
x[837] 1
x[838] 1
x[839] 0
x[840] 1
x[841] 0
x[842] 0
x[843] 0
x[844] 1
x[845] 1
x[846] 1
x[847] 1
x[848] 1
x[849] 1
x[850] 1
x[851] 0
x[852] 0
x[853] 0
x[854] 0
x[855] 0
x[856] 0
x[857] 1
x[858] 1
x[859] 0
x[860] 1
x[861] 0
x[862] 0
x[863] 1
x[864] 1
x[865] 0
x[866] 0
x[867] 1
x[868] 0
x[869] 1
x[870] 1
x[871] 0
x[872] 1
x[873] 1
x[874] 0
x[875] 1
x[876] 1
x[877] 0
x[878] 1
x[879] 1
x[880] 0
x[881] 1
x[882] 1
x[883] 0
x[884] 0
x[885] 0
x[886] 0
x[887] 1
x[888] 0
x[889] 0
x[890] 1
x[891] 0
x[892] 0
x[893] 0
x[894] 0
x[895] 0
x[896] 1
x[897] 0
x[898] 0
x[899] 0
x[900] 0
x[901] 1
x[902] 0
x[903] 1
x[904] 0
x[905] 1
x[906] 0
x[907] 0
x[908] 1
x[909] 1
x[910] 0
x[911] 1
x[912] 0
x[913] 0
x[914] 0
x[915] 0
x[916] 0
x[917] 0
x[918] 1
x[919] 1
x[920] 0
x[921] 0
x[922] 0
x[923] 1
x[924] 1
x[925] 0
x[926] 1
x[927] 0
x[928] 1
x[929] 1
x[930] 0
x[931] 0
x[932] 0
x[933] 1
x[934] 1
x[935] 0
x[936] 0
x[937] 1
x[938] 0
x[939] 0
x[940] 0
x[941] 1
x[942] 1
x[943] 1
x[944] 0
x[945] 1
x[946] 0
x[947] 0
x[948] 1
x[949] 1
x[950] 0
x[951] 0
x[952] 0
x[953] 0
x[954] 0
x[955] 1
x[956] 0
x[957] 1
x[958] 1
x[959] 0
x[960] 0
x[961] 1
x[962] 1
x[963] 0
x[964] 0
x[965] 1
x[966] 1
x[967] 1
x[968] 0
x[969] 1
x[970] 0
x[971] 0
x[972] 0
x[973] 1
x[974] 0
x[975] 0
x[976] 0
x[977] 1
x[978] 0
x[979] 1
x[980] 1
x[981] 0
x[982] 0
x[983] 0
x[984] 1
x[985] 0
x[986] 0
x[987] 1
x[988] 0
x[989] 1
x[990] 1
x[991] 1
x[992] 0
x[993] 1
x[994] 0
x[995] 1
x[996] 0
x[997] 0
x[998] 0
x[999] 0
